90 362713
4 73 44 54 37 33 7 76 34 79 82 9 29 56 50 27 1 88 22 89 38 8 31 40 61 2 75 83 70 39 66 90 46 67 63 43 15 18 80 59 51 72 78 71 62 86 13 53 23 16 14 52 57 36 20 24 81 41 11 64 45 42 35 60 30 10 28 69 65 26 25 6 21 3 68 77 84 47 87 48 49 12 32 55 85 19 58 17 74 5 
